(set-logic QF_NRA)
(set-info :source |Benchmarks generated from hycomp (https://es-static.fbk.eu/tools/hycomp/). BMC instances of non-linear hybrid automata taken from: Alessandro Cimatti, Sergio Mover, Stefano Tonetta, A quantifier-free SMT encoding of non-linear hybrid automata, FMCAD 2012 and Alessandro Cimatti, Sergio Mover, Stefano Tonetta, Quantier-free encoding of invariants for Hybrid Systems, Formal Methods in System Design. This instance solves a BMC problem of depth 2 and uses the quantifier free encoding with lemmas encoding. Contacts: Sergio Mover (mover@fbk.eu), Stefano Tonetta (tonettas@fbk.eu), Alessandro Cimatti (cimatti@fbk.eu).|)
(set-info :smt-lib-version 2.0)
(set-info :category "industrial")
(set-info :status unsat)
;; MathSAT API call trace
;; generated on Mon Mar 19 10:43:34 2012
(declare-fun b.EVENT.1__AT2 () Bool)
(declare-fun b.counter.2__AT2 () Bool)
(declare-fun b.speed_x__AT1 () Real)
(declare-fun b.counter.3__AT2 () Bool)
(declare-fun b.bool_atom__AT2 () Bool)
(declare-fun b.time__AT1 () Real)
(declare-fun b.speed_x__AT2 () Real)
(declare-fun b.x__AT1 () Real)
(declare-fun b.event_is_timed__AT1 () Bool)
(declare-fun b.speed_y__AT2 () Real)
(declare-fun b.counter.0__AT1 () Bool)
(declare-fun b.EVENT.1__AT0 () Bool)
(declare-fun b.speed_loss__AT0 () Real)
(declare-fun b.counter.1__AT1 () Bool)
(declare-fun b.speed_x__AT0 () Real)
(declare-fun b.counter.2__AT1 () Bool)
(declare-fun b.time__AT0 () Real)
(declare-fun b.counter.2__AT0 () Bool)
(declare-fun b.counter.3__AT1 () Bool)
(declare-fun b.bool_atom__AT1 () Bool)
(declare-fun b.x__AT0 () Real)
(declare-fun b.speed_y__AT1 () Real)
(declare-fun b.delta__AT1 () Real)
(declare-fun b.bool_atom__AT0 () Bool)
(declare-fun b.y__AT0 () Real)
(declare-fun b.EVENT.1__AT1 () Bool)
(declare-fun b.EVENT.0__AT1 () Bool)
(declare-fun b.counter.0__AT0 () Bool)
(declare-fun b.delta__AT0 () Real)
(declare-fun b.counter.1__AT0 () Bool)
(declare-fun b.y__AT1 () Real)
(declare-fun b.EVENT.0__AT0 () Bool)
(declare-fun b.event_is_timed__AT2 () Bool)
(declare-fun b.speed_y__AT0 () Real)
(declare-fun b.time__AT2 () Real)
(declare-fun b.y__AT2 () Real)
(declare-fun b.event_is_timed__AT0 () Bool)
(declare-fun b.delta__AT2 () Real)
(declare-fun b.counter.0__AT2 () Bool)
(declare-fun b.x__AT2 () Real)
(declare-fun b.EVENT.0__AT2 () Bool)
(declare-fun b.counter.1__AT2 () Bool)
(declare-fun b.counter.3__AT0 () Bool)
(assert (let ((.def_715 (* (- 1.0) b.speed_x__AT2)))
(let ((.def_716 (* b.speed_x__AT2 .def_715)))
(let ((.def_717 (* (- 1.0) .def_716)))
(let ((.def_745 (* 2.0 .def_717)))
(let ((.def_803 (* (- 1.0) .def_745)))
(let ((.def_804 (* b.delta__AT2 .def_803)))
(let ((.def_805 (* (- 5.0) .def_804)))
(let ((.def_655 (* (- 1.0) b.x__AT2)))
(let ((.def_728 (* b.speed_x__AT2 .def_655)))
(let ((.def_750 (* (- 5.0) .def_728)))
(let ((.def_810 (+ .def_750 .def_805)))
(let ((.def_723 (* b.x__AT2 .def_715)))
(let ((.def_748 (* (- 5.0) .def_723)))
(let ((.def_811 (+ .def_748 .def_810)))
(let ((.def_752 (* (- 49.0) b.delta__AT2)))
(let ((.def_812 (+ .def_752 .def_811)))
(let ((.def_754 (* 5.0 b.speed_y__AT2)))
(let ((.def_813 (+ .def_754 .def_812)))
(let ((.def_816 (<= 0.0 .def_813)))
(let ((.def_823 (not .def_816)))
(let ((.def_729 (* (- 1.0) .def_728)))
(let ((.def_724 (* (- 1.0) .def_723)))
(let ((.def_762 (+ .def_724 .def_729)))
(let ((.def_763 (+ b.speed_y__AT2 .def_762)))
(let ((.def_764 (<= 0.0 .def_763)))
(let ((.def_824 (or .def_764 .def_823)))
(let ((.def_814 (<= .def_813 0.0 )))
(let ((.def_778 (<= .def_763 0.0 )))
(let ((.def_779 (not .def_778)))
(let ((.def_822 (or .def_779 .def_814)))
(let ((.def_825 (and .def_822 .def_824)))
(let ((.def_794 (<= .def_716 (- (/ 49 10)))))
(let ((.def_826 (or .def_794 .def_825)))
(let ((.def_818 (not .def_814)))
(let ((.def_819 (or .def_778 .def_818)))
(let ((.def_765 (not .def_764)))
(let ((.def_817 (or .def_765 .def_816)))
(let ((.def_820 (and .def_817 .def_819)))
(let ((.def_799 (<= (- (/ 49 10)) .def_716)))
(let ((.def_821 (or .def_799 .def_820)))
(let ((.def_827 (and .def_821 .def_826)))
(let ((.def_815 (and .def_778 .def_814)))
(let ((.def_828 (and .def_815 .def_827)))
(let ((.def_746 (* b.delta__AT2 .def_745)))
(let ((.def_747 (* 5.0 .def_746)))
(let ((.def_756 (+ .def_750 .def_747)))
(let ((.def_757 (+ .def_748 .def_756)))
(let ((.def_758 (+ .def_752 .def_757)))
(let ((.def_759 (+ .def_754 .def_758)))
(let ((.def_776 (<= .def_759 0.0 )))
(let ((.def_777 (not .def_776)))
(let ((.def_797 (or .def_777 .def_778)))
(let ((.def_760 (<= 0.0 .def_759)))
(let ((.def_796 (or .def_760 .def_765)))
(let ((.def_798 (and .def_796 .def_797)))
(let ((.def_800 (or .def_798 .def_799)))
(let ((.def_761 (not .def_760)))
(let ((.def_792 (or .def_761 .def_764)))
(let ((.def_791 (or .def_776 .def_779)))
(let ((.def_793 (and .def_791 .def_792)))
(let ((.def_795 (or .def_793 .def_794)))
(let ((.def_801 (and .def_795 .def_800)))
(let ((.def_790 (and .def_760 .def_764)))
(let ((.def_802 (and .def_790 .def_801)))
(let ((.def_829 (or .def_802 .def_828)))
(let ((.def_730 (* b.delta__AT2 .def_729)))
(let ((.def_731 (* 10.0 .def_730)))
(let ((.def_725 (* b.delta__AT2 .def_724)))
(let ((.def_726 (* 10.0 .def_725)))
(let ((.def_737 (+ .def_726 .def_731)))
(let ((.def_714 (* b.delta__AT2 b.delta__AT2)))
(let ((.def_718 (* .def_714 .def_717)))
(let ((.def_719 (* 10.0 .def_718)))
(let ((.def_738 (+ .def_719 .def_737)))
(let ((.def_721 (* (- 49.0) .def_714)))
(let ((.def_739 (+ .def_721 .def_738)))
(let ((.def_712 (* b.speed_y__AT2 b.delta__AT2)))
(let ((.def_713 (* 10.0 .def_712)))
(let ((.def_740 (+ .def_713 .def_739)))
(let ((.def_701 (* b.x__AT2 .def_655)))
(let ((.def_733 (* (- 10.0) .def_701)))
(let ((.def_741 (+ .def_733 .def_740)))
(let ((.def_735 (* 10.0 b.y__AT2)))
(let ((.def_742 (+ .def_735 .def_741)))
(let ((.def_770 (<= .def_742 0.0 )))
(let ((.def_784 (not .def_770)))
(let ((.def_768 (<= b.y__AT2 .def_701)))
(let ((.def_785 (or .def_768 .def_784)))
(let ((.def_702 (<= .def_701 b.y__AT2)))
(let ((.def_782 (not .def_702)))
(let ((.def_743 (<= 0.0 .def_742)))
(let ((.def_783 (or .def_743 .def_782)))
(let ((.def_786 (and .def_783 .def_785)))
(let ((.def_780 (or .def_777 .def_779)))
(let ((.def_781 (not .def_780)))
(let ((.def_787 (or .def_781 .def_786)))
(let ((.def_772 (not .def_743)))
(let ((.def_773 (or .def_702 .def_772)))
(let ((.def_769 (not .def_768)))
(let ((.def_771 (or .def_769 .def_770)))
(let ((.def_774 (and .def_771 .def_773)))
(let ((.def_766 (or .def_761 .def_765)))
(let ((.def_767 (not .def_766)))
(let ((.def_775 (or .def_767 .def_774)))
(let ((.def_788 (and .def_775 .def_787)))
(let ((.def_744 (and .def_702 .def_743)))
(let ((.def_789 (and .def_744 .def_788)))
(let ((.def_830 (and .def_789 .def_829)))
(let ((.def_66 (<= b.speed_loss__AT0 (/ 1 2))))
(let ((.def_63 (<= (/ 1 10) b.speed_loss__AT0)))
(let ((.def_67 (and .def_63 .def_66)))
(let ((.def_831 (and .def_67 .def_830)))
(let ((.def_303 (not b.counter.0__AT1)))
(let ((.def_706 (or b.counter.1__AT1 .def_303)))
(let ((.def_298 (not b.counter.2__AT1)))
(let ((.def_707 (or .def_298 .def_706)))
(let ((.def_708 (or b.counter.3__AT1 .def_707)))
(let ((.def_703 (and .def_67 .def_702)))
(let ((.def_698 (not b.EVENT.0__AT2)))
(let ((.def_696 (not b.EVENT.1__AT2)))
(let ((.def_699 (or .def_696 .def_698)))
(let ((.def_603 (not b.counter.1__AT2)))
(let ((.def_4 (not b.counter.0__AT2)))
(let ((.def_689 (or .def_4 .def_603)))
(let ((.def_693 (or b.counter.3__AT2 .def_689)))
(let ((.def_690 (or b.counter.2__AT2 .def_689)))
(let ((.def_8 (not b.counter.2__AT2)))
(let ((.def_688 (or .def_4 .def_8)))
(let ((.def_691 (and .def_688 .def_690)))
(let ((.def_620 (not b.counter.3__AT2)))
(let ((.def_692 (or .def_620 .def_691)))
(let ((.def_694 (and .def_692 .def_693)))
(let ((.def_700 (and .def_694 .def_699)))
(let ((.def_704 (and .def_700 .def_703)))
(let ((.def_683 (<= 0.0 b.delta__AT1)))
(let ((.def_390 (not b.EVENT.0__AT1)))
(let ((.def_388 (not b.EVENT.1__AT1)))
(let ((.def_525 (and .def_388 .def_390)))
(let ((.def_527 (not .def_525)))
(let ((.def_684 (or .def_527 .def_683)))
(let ((.def_685 (or b.EVENT.1__AT1 .def_684)))
(let ((.def_565 (= b.bool_atom__AT1 b.bool_atom__AT2)))
(let ((.def_561 (= b.counter.0__AT2 b.counter.0__AT1)))
(let ((.def_559 (= b.counter.1__AT2 b.counter.1__AT1)))
(let ((.def_557 (= b.counter.2__AT2 b.counter.2__AT1)))
(let ((.def_556 (= b.counter.3__AT2 b.counter.3__AT1)))
(let ((.def_558 (and .def_556 .def_557)))
(let ((.def_560 (and .def_558 .def_559)))
(let ((.def_562 (and .def_560 .def_561)))
(let ((.def_679 (and .def_562 .def_565)))
(let ((.def_680 (or .def_527 .def_679)))
(let ((.def_681 (or b.EVENT.1__AT1 .def_680)))
(let ((.def_667 (* (- 10.0) b.y__AT2)))
(let ((.def_406 (* b.delta__AT1 b.delta__AT1)))
(let ((.def_413 (* (- 49.0) .def_406)))
(let ((.def_671 (+ .def_413 .def_667)))
(let ((.def_404 (* b.speed_y__AT1 b.delta__AT1)))
(let ((.def_405 (* 10.0 .def_404)))
(let ((.def_672 (+ .def_405 .def_671)))
(let ((.def_427 (* 10.0 b.y__AT1)))
(let ((.def_673 (+ .def_427 .def_672)))
(let ((.def_674 (= .def_673 0.0 )))
(let ((.def_662 (* (- 5.0) b.speed_y__AT2)))
(let ((.def_444 (* (- 49.0) b.delta__AT1)))
(let ((.def_663 (+ .def_444 .def_662)))
(let ((.def_446 (* 5.0 b.speed_y__AT1)))
(let ((.def_664 (+ .def_446 .def_663)))
(let ((.def_665 (= .def_664 0.0 )))
(let ((.def_654 (* b.speed_x__AT1 b.delta__AT1)))
(let ((.def_658 (+ .def_655 .def_654)))
(let ((.def_659 (+ b.x__AT1 .def_658)))
(let ((.def_660 (= .def_659 0.0 )))
(let ((.def_551 (= b.speed_x__AT1 b.speed_x__AT2)))
(let ((.def_661 (and .def_551 .def_660)))
(let ((.def_666 (and .def_661 .def_665)))
(let ((.def_675 (and .def_666 .def_674)))
(let ((.def_676 (or .def_527 .def_675)))
(let ((.def_548 (= b.y__AT1 b.y__AT2)))
(let ((.def_545 (= b.x__AT1 b.x__AT2)))
(let ((.def_648 (and .def_545 .def_548)))
(let ((.def_649 (and .def_551 .def_648)))
(let ((.def_554 (= b.speed_y__AT1 b.speed_y__AT2)))
(let ((.def_650 (and .def_554 .def_649)))
(let ((.def_645 (= b.delta__AT1 0.0 )))
(let ((.def_646 (and .def_525 .def_645)))
(let ((.def_647 (not .def_646)))
(let ((.def_651 (or .def_647 .def_650)))
(let ((.def_652 (or b.EVENT.1__AT1 .def_651)))
(let ((.def_637 (and .def_551 .def_554)))
(let ((.def_638 (and .def_562 .def_637)))
(let ((.def_639 (or b.bool_atom__AT1 .def_638)))
(let ((.def_612 (or .def_4 b.counter.0__AT1)))
(let ((.def_611 (or b.counter.0__AT2 .def_303)))
(let ((.def_613 (and .def_611 .def_612)))
(let ((.def_614 (and .def_603 .def_613)))
(let ((.def_615 (or b.counter.1__AT1 .def_614)))
(let ((.def_293 (not b.counter.1__AT1)))
(let ((.def_610 (or b.counter.1__AT2 .def_293)))
(let ((.def_616 (and .def_610 .def_615)))
(let ((.def_628 (and .def_8 .def_616)))
(let ((.def_629 (or b.counter.2__AT1 .def_628)))
(let ((.def_623 (and .def_303 .def_603)))
(let ((.def_624 (or b.counter.1__AT1 .def_623)))
(let ((.def_625 (and .def_610 .def_624)))
(let ((.def_626 (and b.counter.2__AT2 .def_625)))
(let ((.def_627 (or .def_298 .def_626)))
(let ((.def_630 (and .def_627 .def_629)))
(let ((.def_631 (and b.counter.3__AT2 .def_630)))
(let ((.def_632 (or b.counter.3__AT1 .def_631)))
(let ((.def_617 (and b.counter.2__AT2 .def_616)))
(let ((.def_618 (or b.counter.2__AT1 .def_617)))
(let ((.def_606 (or b.counter.1__AT2 b.counter.1__AT1)))
(let ((.def_604 (and b.counter.0__AT2 .def_603)))
(let ((.def_605 (or .def_293 .def_604)))
(let ((.def_607 (and .def_605 .def_606)))
(let ((.def_608 (and .def_8 .def_607)))
(let ((.def_609 (or .def_298 .def_608)))
(let ((.def_619 (and .def_609 .def_618)))
(let ((.def_621 (and .def_619 .def_620)))
(let ((.def_312 (not b.counter.3__AT1)))
(let ((.def_622 (or .def_312 .def_621)))
(let ((.def_633 (and .def_622 .def_632)))
(let ((.def_279 (* b.speed_y__AT1 b.speed_y__AT1)))
(let ((.def_277 (* b.speed_x__AT1 b.speed_x__AT1)))
(let ((.def_595 (+ .def_277 .def_279)))
(let ((.def_265 (* (- 1.0) b.speed_loss__AT0)))
(let ((.def_266 (+ 1.0 .def_265)))
(let ((.def_282 (* .def_266 .def_266)))
(let ((.def_596 (* .def_282 .def_595)))
(let ((.def_598 (* (- 1.0) .def_596)))
(let ((.def_592 (* b.speed_y__AT2 b.speed_y__AT2)))
(let ((.def_599 (+ .def_592 .def_598)))
(let ((.def_590 (* b.speed_x__AT2 b.speed_x__AT2)))
(let ((.def_600 (+ .def_590 .def_599)))
(let ((.def_601 (= .def_600 0.0 )))
(let ((.def_583 (* b.speed_y__AT1 .def_266)))
(let ((.def_262 (* (- 2.0) b.x__AT1)))
(let ((.def_263 (* (- 1.0) .def_262)))
(let ((.def_580 (* .def_263 .def_266)))
(let ((.def_581 (* b.speed_x__AT1 .def_580)))
(let ((.def_586 (+ .def_581 .def_583)))
(let ((.def_577 (* (- 2.0) b.x__AT2)))
(let ((.def_578 (* (- 1.0) .def_577)))
(let ((.def_579 (* b.speed_x__AT2 .def_578)))
(let ((.def_587 (+ .def_579 .def_586)))
(let ((.def_588 (+ b.speed_y__AT2 .def_587)))
(let ((.def_589 (= .def_588 0.0 )))
(let ((.def_602 (and .def_589 .def_601)))
(let ((.def_634 (and .def_602 .def_633)))
(let ((.def_576 (not b.bool_atom__AT1)))
(let ((.def_635 (or .def_576 .def_634)))
(let ((.def_264 (* b.speed_x__AT1 .def_263)))
(let ((.def_571 (+ b.speed_y__AT1 .def_264)))
(let ((.def_572 (<= 0.0 .def_571)))
(let ((.def_573 (not .def_572)))
(let ((.def_347 (* (- 1.0) b.x__AT1)))
(let ((.def_393 (* b.x__AT1 .def_347)))
(let ((.def_570 (= b.y__AT1 .def_393)))
(let ((.def_574 (and .def_570 .def_573)))
(let ((.def_575 (= b.bool_atom__AT1 .def_574)))
(let ((.def_636 (and .def_575 .def_635)))
(let ((.def_640 (and .def_636 .def_639)))
(let ((.def_641 (and .def_545 .def_640)))
(let ((.def_642 (and .def_548 .def_641)))
(let ((.def_643 (or .def_525 .def_642)))
(let ((.def_644 (or b.EVENT.1__AT1 .def_643)))
(let ((.def_653 (and .def_644 .def_652)))
(let ((.def_677 (and .def_653 .def_676)))
(let ((.def_532 (= b.time__AT1 b.time__AT2)))
(let ((.def_546 (and .def_532 .def_545)))
(let ((.def_549 (and .def_546 .def_548)))
(let ((.def_552 (and .def_549 .def_551)))
(let ((.def_555 (and .def_552 .def_554)))
(let ((.def_563 (and .def_555 .def_562)))
(let ((.def_566 (and .def_563 .def_565)))
(let ((.def_567 (or .def_388 .def_566)))
(let ((.def_535 (* (- 1.0) b.time__AT2)))
(let ((.def_538 (+ b.delta__AT1 .def_535)))
(let ((.def_539 (+ b.time__AT1 .def_538)))
(let ((.def_540 (= .def_539 0.0 )))
(let ((.def_541 (or .def_527 .def_540)))
(let ((.def_542 (or b.EVENT.1__AT1 .def_541)))
(let ((.def_533 (or .def_525 .def_532)))
(let ((.def_534 (or b.EVENT.1__AT1 .def_533)))
(let ((.def_543 (and .def_534 .def_542)))
(let ((.def_568 (and .def_543 .def_567)))
(let ((.def_529 (= .def_527 b.event_is_timed__AT2)))
(let ((.def_526 (= b.event_is_timed__AT1 .def_525)))
(let ((.def_530 (and .def_526 .def_529)))
(let ((.def_569 (and .def_530 .def_568)))
(let ((.def_678 (and .def_569 .def_677)))
(let ((.def_682 (and .def_678 .def_681)))
(let ((.def_686 (and .def_682 .def_685)))
(let ((.def_687 (and .def_388 .def_686)))
(let ((.def_705 (and .def_687 .def_704)))
(let ((.def_709 (and .def_705 .def_708)))
(let ((.def_407 (* (- 1.0) b.speed_x__AT1)))
(let ((.def_408 (* b.speed_x__AT1 .def_407)))
(let ((.def_409 (* (- 1.0) .def_408)))
(let ((.def_437 (* 2.0 .def_409)))
(let ((.def_495 (* (- 1.0) .def_437)))
(let ((.def_496 (* b.delta__AT1 .def_495)))
(let ((.def_497 (* (- 5.0) .def_496)))
(let ((.def_420 (* b.speed_x__AT1 .def_347)))
(let ((.def_442 (* (- 5.0) .def_420)))
(let ((.def_502 (+ .def_442 .def_497)))
(let ((.def_415 (* b.x__AT1 .def_407)))
(let ((.def_440 (* (- 5.0) .def_415)))
(let ((.def_503 (+ .def_440 .def_502)))
(let ((.def_504 (+ .def_444 .def_503)))
(let ((.def_505 (+ .def_446 .def_504)))
(let ((.def_508 (<= 0.0 .def_505)))
(let ((.def_515 (not .def_508)))
(let ((.def_421 (* (- 1.0) .def_420)))
(let ((.def_416 (* (- 1.0) .def_415)))
(let ((.def_454 (+ .def_416 .def_421)))
(let ((.def_455 (+ b.speed_y__AT1 .def_454)))
(let ((.def_456 (<= 0.0 .def_455)))
(let ((.def_516 (or .def_456 .def_515)))
(let ((.def_506 (<= .def_505 0.0 )))
(let ((.def_470 (<= .def_455 0.0 )))
(let ((.def_471 (not .def_470)))
(let ((.def_514 (or .def_471 .def_506)))
(let ((.def_517 (and .def_514 .def_516)))
(let ((.def_486 (<= .def_408 (- (/ 49 10)))))
(let ((.def_518 (or .def_486 .def_517)))
(let ((.def_510 (not .def_506)))
(let ((.def_511 (or .def_470 .def_510)))
(let ((.def_457 (not .def_456)))
(let ((.def_509 (or .def_457 .def_508)))
(let ((.def_512 (and .def_509 .def_511)))
(let ((.def_491 (<= (- (/ 49 10)) .def_408)))
(let ((.def_513 (or .def_491 .def_512)))
(let ((.def_519 (and .def_513 .def_518)))
(let ((.def_507 (and .def_470 .def_506)))
(let ((.def_520 (and .def_507 .def_519)))
(let ((.def_438 (* b.delta__AT1 .def_437)))
(let ((.def_439 (* 5.0 .def_438)))
(let ((.def_448 (+ .def_442 .def_439)))
(let ((.def_449 (+ .def_440 .def_448)))
(let ((.def_450 (+ .def_444 .def_449)))
(let ((.def_451 (+ .def_446 .def_450)))
(let ((.def_468 (<= .def_451 0.0 )))
(let ((.def_469 (not .def_468)))
(let ((.def_489 (or .def_469 .def_470)))
(let ((.def_452 (<= 0.0 .def_451)))
(let ((.def_488 (or .def_452 .def_457)))
(let ((.def_490 (and .def_488 .def_489)))
(let ((.def_492 (or .def_490 .def_491)))
(let ((.def_453 (not .def_452)))
(let ((.def_484 (or .def_453 .def_456)))
(let ((.def_483 (or .def_468 .def_471)))
(let ((.def_485 (and .def_483 .def_484)))
(let ((.def_487 (or .def_485 .def_486)))
(let ((.def_493 (and .def_487 .def_492)))
(let ((.def_482 (and .def_452 .def_456)))
(let ((.def_494 (and .def_482 .def_493)))
(let ((.def_521 (or .def_494 .def_520)))
(let ((.def_422 (* b.delta__AT1 .def_421)))
(let ((.def_423 (* 10.0 .def_422)))
(let ((.def_417 (* b.delta__AT1 .def_416)))
(let ((.def_418 (* 10.0 .def_417)))
(let ((.def_429 (+ .def_418 .def_423)))
(let ((.def_410 (* .def_406 .def_409)))
(let ((.def_411 (* 10.0 .def_410)))
(let ((.def_430 (+ .def_411 .def_429)))
(let ((.def_431 (+ .def_413 .def_430)))
(let ((.def_432 (+ .def_405 .def_431)))
(let ((.def_425 (* (- 10.0) .def_393)))
(let ((.def_433 (+ .def_425 .def_432)))
(let ((.def_434 (+ .def_427 .def_433)))
(let ((.def_462 (<= .def_434 0.0 )))
(let ((.def_476 (not .def_462)))
(let ((.def_460 (<= b.y__AT1 .def_393)))
(let ((.def_477 (or .def_460 .def_476)))
(let ((.def_394 (<= .def_393 b.y__AT1)))
(let ((.def_474 (not .def_394)))
(let ((.def_435 (<= 0.0 .def_434)))
(let ((.def_475 (or .def_435 .def_474)))
(let ((.def_478 (and .def_475 .def_477)))
(let ((.def_472 (or .def_469 .def_471)))
(let ((.def_473 (not .def_472)))
(let ((.def_479 (or .def_473 .def_478)))
(let ((.def_464 (not .def_435)))
(let ((.def_465 (or .def_394 .def_464)))
(let ((.def_461 (not .def_460)))
(let ((.def_463 (or .def_461 .def_462)))
(let ((.def_466 (and .def_463 .def_465)))
(let ((.def_458 (or .def_453 .def_457)))
(let ((.def_459 (not .def_458)))
(let ((.def_467 (or .def_459 .def_466)))
(let ((.def_480 (and .def_467 .def_479)))
(let ((.def_436 (and .def_394 .def_435)))
(let ((.def_481 (and .def_436 .def_480)))
(let ((.def_522 (and .def_481 .def_521)))
(let ((.def_523 (and .def_67 .def_522)))
(let ((.def_35 (not b.counter.0__AT0)))
(let ((.def_398 (or b.counter.1__AT0 .def_35)))
(let ((.def_38 (not b.counter.2__AT0)))
(let ((.def_399 (or .def_38 .def_398)))
(let ((.def_400 (or b.counter.3__AT0 .def_399)))
(let ((.def_395 (and .def_67 .def_394)))
(let ((.def_391 (or .def_388 .def_390)))
(let ((.def_381 (or .def_293 .def_303)))
(let ((.def_385 (or b.counter.3__AT1 .def_381)))
(let ((.def_382 (or b.counter.2__AT1 .def_381)))
(let ((.def_380 (or .def_298 .def_303)))
(let ((.def_383 (and .def_380 .def_382)))
(let ((.def_384 (or .def_312 .def_383)))
(let ((.def_386 (and .def_384 .def_385)))
(let ((.def_392 (and .def_386 .def_391)))
(let ((.def_396 (and .def_392 .def_395)))
(let ((.def_375 (<= 0.0 b.delta__AT0)))
(let ((.def_54 (not b.EVENT.0__AT0)))
(let ((.def_52 (not b.EVENT.1__AT0)))
(let ((.def_201 (and .def_52 .def_54)))
(let ((.def_203 (not .def_201)))
(let ((.def_376 (or .def_203 .def_375)))
(let ((.def_377 (or b.EVENT.1__AT0 .def_376)))
(let ((.def_246 (= b.bool_atom__AT0 b.bool_atom__AT1)))
(let ((.def_241 (= b.counter.0__AT0 b.counter.0__AT1)))
(let ((.def_238 (= b.counter.1__AT0 b.counter.1__AT1)))
(let ((.def_235 (= b.counter.2__AT0 b.counter.2__AT1)))
(let ((.def_233 (= b.counter.3__AT0 b.counter.3__AT1)))
(let ((.def_236 (and .def_233 .def_235)))
(let ((.def_239 (and .def_236 .def_238)))
(let ((.def_242 (and .def_239 .def_241)))
(let ((.def_371 (and .def_242 .def_246)))
(let ((.def_372 (or .def_203 .def_371)))
(let ((.def_373 (or b.EVENT.1__AT0 .def_372)))
(let ((.def_360 (* (- 10.0) b.y__AT1)))
(let ((.def_75 (* b.delta__AT0 b.delta__AT0)))
(let ((.def_84 (* (- 49.0) .def_75)))
(let ((.def_363 (+ .def_84 .def_360)))
(let ((.def_73 (* b.speed_y__AT0 b.delta__AT0)))
(let ((.def_74 (* 10.0 .def_73)))
(let ((.def_364 (+ .def_74 .def_363)))
(let ((.def_99 (* 10.0 b.y__AT0)))
(let ((.def_365 (+ .def_99 .def_364)))
(let ((.def_366 (= .def_365 0.0 )))
(let ((.def_354 (* (- 5.0) b.speed_y__AT1)))
(let ((.def_118 (* (- 49.0) b.delta__AT0)))
(let ((.def_355 (+ .def_118 .def_354)))
(let ((.def_120 (* 5.0 b.speed_y__AT0)))
(let ((.def_356 (+ .def_120 .def_355)))
(let ((.def_357 (= .def_356 0.0 )))
(let ((.def_346 (* b.speed_x__AT0 b.delta__AT0)))
(let ((.def_350 (+ .def_347 .def_346)))
(let ((.def_351 (+ b.x__AT0 .def_350)))
(let ((.def_352 (= .def_351 0.0 )))
(let ((.def_227 (= b.speed_x__AT0 b.speed_x__AT1)))
(let ((.def_353 (and .def_227 .def_352)))
(let ((.def_358 (and .def_353 .def_357)))
(let ((.def_367 (and .def_358 .def_366)))
(let ((.def_368 (or .def_203 .def_367)))
(let ((.def_224 (= b.y__AT0 b.y__AT1)))
(let ((.def_221 (= b.x__AT0 b.x__AT1)))
(let ((.def_340 (and .def_221 .def_224)))
(let ((.def_341 (and .def_227 .def_340)))
(let ((.def_230 (= b.speed_y__AT0 b.speed_y__AT1)))
(let ((.def_342 (and .def_230 .def_341)))
(let ((.def_337 (= b.delta__AT0 0.0 )))
(let ((.def_338 (and .def_201 .def_337)))
(let ((.def_339 (not .def_338)))
(let ((.def_343 (or .def_339 .def_342)))
(let ((.def_344 (or b.EVENT.1__AT0 .def_343)))
(let ((.def_329 (and .def_227 .def_230)))
(let ((.def_330 (and .def_242 .def_329)))
(let ((.def_331 (or b.bool_atom__AT0 .def_330)))
(let ((.def_304 (or b.counter.0__AT0 .def_303)))
(let ((.def_302 (or .def_35 b.counter.0__AT1)))
(let ((.def_305 (and .def_302 .def_304)))
(let ((.def_306 (and .def_293 .def_305)))
(let ((.def_307 (or b.counter.1__AT0 .def_306)))
(let ((.def_33 (not b.counter.1__AT0)))
(let ((.def_301 (or .def_33 b.counter.1__AT1)))
(let ((.def_308 (and .def_301 .def_307)))
(let ((.def_320 (and .def_298 .def_308)))
(let ((.def_321 (or b.counter.2__AT0 .def_320)))
(let ((.def_315 (and .def_35 .def_293)))
(let ((.def_316 (or b.counter.1__AT0 .def_315)))
(let ((.def_317 (and .def_301 .def_316)))
(let ((.def_318 (and b.counter.2__AT1 .def_317)))
(let ((.def_319 (or .def_38 .def_318)))
(let ((.def_322 (and .def_319 .def_321)))
(let ((.def_323 (and b.counter.3__AT1 .def_322)))
(let ((.def_324 (or b.counter.3__AT0 .def_323)))
(let ((.def_309 (and b.counter.2__AT1 .def_308)))
(let ((.def_310 (or b.counter.2__AT0 .def_309)))
(let ((.def_296 (or b.counter.1__AT0 b.counter.1__AT1)))
(let ((.def_294 (and b.counter.0__AT1 .def_293)))
(let ((.def_295 (or .def_33 .def_294)))
(let ((.def_297 (and .def_295 .def_296)))
(let ((.def_299 (and .def_297 .def_298)))
(let ((.def_300 (or .def_38 .def_299)))
(let ((.def_311 (and .def_300 .def_310)))
(let ((.def_313 (and .def_311 .def_312)))
(let ((.def_41 (not b.counter.3__AT0)))
(let ((.def_314 (or .def_41 .def_313)))
(let ((.def_325 (and .def_314 .def_324)))
(let ((.def_284 (* b.speed_y__AT0 b.speed_y__AT0)))
(let ((.def_283 (* b.speed_x__AT0 b.speed_x__AT0)))
(let ((.def_285 (+ .def_283 .def_284)))
(let ((.def_286 (* .def_282 .def_285)))
(let ((.def_288 (* (- 1.0) .def_286)))
(let ((.def_289 (+ .def_279 .def_288)))
(let ((.def_290 (+ .def_277 .def_289)))
(let ((.def_291 (= .def_290 0.0 )))
(let ((.def_270 (* b.speed_y__AT0 .def_266)))
(let ((.def_253 (* (- 2.0) b.x__AT0)))
(let ((.def_254 (* (- 1.0) .def_253)))
(let ((.def_267 (* .def_254 .def_266)))
(let ((.def_268 (* b.speed_x__AT0 .def_267)))
(let ((.def_273 (+ .def_268 .def_270)))
(let ((.def_274 (+ .def_264 .def_273)))
(let ((.def_275 (+ b.speed_y__AT1 .def_274)))
(let ((.def_276 (= .def_275 0.0 )))
(let ((.def_292 (and .def_276 .def_291)))
(let ((.def_326 (and .def_292 .def_325)))
(let ((.def_261 (not b.bool_atom__AT0)))
(let ((.def_327 (or .def_261 .def_326)))
(let ((.def_255 (* b.speed_x__AT0 .def_254)))
(let ((.def_256 (+ b.speed_y__AT0 .def_255)))
(let ((.def_257 (<= 0.0 .def_256)))
(let ((.def_258 (not .def_257)))
(let ((.def_58 (* (- 1.0) b.x__AT0)))
(let ((.def_59 (* b.x__AT0 .def_58)))
(let ((.def_251 (= b.y__AT0 .def_59)))
(let ((.def_259 (and .def_251 .def_258)))
(let ((.def_260 (= b.bool_atom__AT0 .def_259)))
(let ((.def_328 (and .def_260 .def_327)))
(let ((.def_332 (and .def_328 .def_331)))
(let ((.def_333 (and .def_221 .def_332)))
(let ((.def_334 (and .def_224 .def_333)))
(let ((.def_335 (or .def_201 .def_334)))
(let ((.def_336 (or b.EVENT.1__AT0 .def_335)))
(let ((.def_345 (and .def_336 .def_344)))
(let ((.def_369 (and .def_345 .def_368)))
(let ((.def_208 (= b.time__AT0 b.time__AT1)))
(let ((.def_222 (and .def_208 .def_221)))
(let ((.def_225 (and .def_222 .def_224)))
(let ((.def_228 (and .def_225 .def_227)))
(let ((.def_231 (and .def_228 .def_230)))
(let ((.def_243 (and .def_231 .def_242)))
(let ((.def_247 (and .def_243 .def_246)))
(let ((.def_248 (or .def_52 .def_247)))
(let ((.def_211 (* (- 1.0) b.time__AT1)))
(let ((.def_214 (+ b.delta__AT0 .def_211)))
(let ((.def_215 (+ b.time__AT0 .def_214)))
(let ((.def_216 (= .def_215 0.0 )))
(let ((.def_217 (or .def_203 .def_216)))
(let ((.def_218 (or b.EVENT.1__AT0 .def_217)))
(let ((.def_209 (or .def_201 .def_208)))
(let ((.def_210 (or b.EVENT.1__AT0 .def_209)))
(let ((.def_219 (and .def_210 .def_218)))
(let ((.def_249 (and .def_219 .def_248)))
(let ((.def_205 (= .def_203 b.event_is_timed__AT1)))
(let ((.def_202 (= b.event_is_timed__AT0 .def_201)))
(let ((.def_206 (and .def_202 .def_205)))
(let ((.def_250 (and .def_206 .def_249)))
(let ((.def_370 (and .def_250 .def_369)))
(let ((.def_374 (and .def_370 .def_373)))
(let ((.def_378 (and .def_374 .def_377)))
(let ((.def_379 (and .def_52 .def_378)))
(let ((.def_397 (and .def_379 .def_396)))
(let ((.def_401 (and .def_397 .def_400)))
(let ((.def_76 (* (- 1.0) b.speed_x__AT0)))
(let ((.def_77 (* b.speed_x__AT0 .def_76)))
(let ((.def_78 (* (- 1.0) .def_77)))
(let ((.def_109 (* 2.0 .def_78)))
(let ((.def_171 (* (- 1.0) .def_109)))
(let ((.def_172 (* b.delta__AT0 .def_171)))
(let ((.def_173 (* (- 5.0) .def_172)))
(let ((.def_91 (* b.speed_x__AT0 .def_58)))
(let ((.def_116 (* (- 5.0) .def_91)))
(let ((.def_178 (+ .def_116 .def_173)))
(let ((.def_86 (* b.x__AT0 .def_76)))
(let ((.def_114 (* (- 5.0) .def_86)))
(let ((.def_179 (+ .def_114 .def_178)))
(let ((.def_180 (+ .def_118 .def_179)))
(let ((.def_181 (+ .def_120 .def_180)))
(let ((.def_184 (<= 0.0 .def_181)))
(let ((.def_191 (not .def_184)))
(let ((.def_92 (* (- 1.0) .def_91)))
(let ((.def_87 (* (- 1.0) .def_86)))
(let ((.def_128 (+ .def_87 .def_92)))
(let ((.def_129 (+ b.speed_y__AT0 .def_128)))
(let ((.def_130 (<= 0.0 .def_129)))
(let ((.def_192 (or .def_130 .def_191)))
(let ((.def_182 (<= .def_181 0.0 )))
(let ((.def_144 (<= .def_129 0.0 )))
(let ((.def_145 (not .def_144)))
(let ((.def_190 (or .def_145 .def_182)))
(let ((.def_193 (and .def_190 .def_192)))
(let ((.def_162 (<= .def_77 (- (/ 49 10)))))
(let ((.def_194 (or .def_162 .def_193)))
(let ((.def_186 (not .def_182)))
(let ((.def_187 (or .def_144 .def_186)))
(let ((.def_131 (not .def_130)))
(let ((.def_185 (or .def_131 .def_184)))
(let ((.def_188 (and .def_185 .def_187)))
(let ((.def_167 (<= (- (/ 49 10)) .def_77)))
(let ((.def_189 (or .def_167 .def_188)))
(let ((.def_195 (and .def_189 .def_194)))
(let ((.def_183 (and .def_144 .def_182)))
(let ((.def_196 (and .def_183 .def_195)))
(let ((.def_110 (* b.delta__AT0 .def_109)))
(let ((.def_112 (* 5.0 .def_110)))
(let ((.def_122 (+ .def_116 .def_112)))
(let ((.def_123 (+ .def_114 .def_122)))
(let ((.def_124 (+ .def_118 .def_123)))
(let ((.def_125 (+ .def_120 .def_124)))
(let ((.def_142 (<= .def_125 0.0 )))
(let ((.def_143 (not .def_142)))
(let ((.def_165 (or .def_143 .def_144)))
(let ((.def_126 (<= 0.0 .def_125)))
(let ((.def_164 (or .def_126 .def_131)))
(let ((.def_166 (and .def_164 .def_165)))
(let ((.def_168 (or .def_166 .def_167)))
(let ((.def_127 (not .def_126)))
(let ((.def_158 (or .def_127 .def_130)))
(let ((.def_157 (or .def_142 .def_145)))
(let ((.def_159 (and .def_157 .def_158)))
(let ((.def_163 (or .def_159 .def_162)))
(let ((.def_169 (and .def_163 .def_168)))
(let ((.def_156 (and .def_126 .def_130)))
(let ((.def_170 (and .def_156 .def_169)))
(let ((.def_197 (or .def_170 .def_196)))
(let ((.def_93 (* b.delta__AT0 .def_92)))
(let ((.def_94 (* 10.0 .def_93)))
(let ((.def_88 (* b.delta__AT0 .def_87)))
(let ((.def_89 (* 10.0 .def_88)))
(let ((.def_101 (+ .def_89 .def_94)))
(let ((.def_79 (* .def_75 .def_78)))
(let ((.def_80 (* 10.0 .def_79)))
(let ((.def_102 (+ .def_80 .def_101)))
(let ((.def_103 (+ .def_84 .def_102)))
(let ((.def_104 (+ .def_74 .def_103)))
(let ((.def_97 (* (- 10.0) .def_59)))
(let ((.def_105 (+ .def_97 .def_104)))
(let ((.def_106 (+ .def_99 .def_105)))
(let ((.def_136 (<= .def_106 0.0 )))
(let ((.def_150 (not .def_136)))
(let ((.def_134 (<= b.y__AT0 .def_59)))
(let ((.def_151 (or .def_134 .def_150)))
(let ((.def_60 (<= .def_59 b.y__AT0)))
(let ((.def_148 (not .def_60)))
(let ((.def_107 (<= 0.0 .def_106)))
(let ((.def_149 (or .def_107 .def_148)))
(let ((.def_152 (and .def_149 .def_151)))
(let ((.def_146 (or .def_143 .def_145)))
(let ((.def_147 (not .def_146)))
(let ((.def_153 (or .def_147 .def_152)))
(let ((.def_138 (not .def_107)))
(let ((.def_139 (or .def_60 .def_138)))
(let ((.def_135 (not .def_134)))
(let ((.def_137 (or .def_135 .def_136)))
(let ((.def_140 (and .def_137 .def_139)))
(let ((.def_132 (or .def_127 .def_131)))
(let ((.def_133 (not .def_132)))
(let ((.def_141 (or .def_133 .def_140)))
(let ((.def_154 (and .def_141 .def_153)))
(let ((.def_108 (and .def_60 .def_107)))
(let ((.def_155 (and .def_108 .def_154)))
(let ((.def_198 (and .def_155 .def_197)))
(let ((.def_199 (and .def_67 .def_198)))
(let ((.def_68 (and .def_60 .def_67)))
(let ((.def_55 (or .def_52 .def_54)))
(let ((.def_45 (or .def_33 .def_35)))
(let ((.def_49 (or b.counter.3__AT0 .def_45)))
(let ((.def_46 (or b.counter.2__AT0 .def_45)))
(let ((.def_44 (or .def_35 .def_38)))
(let ((.def_47 (and .def_44 .def_46)))
(let ((.def_48 (or .def_41 .def_47)))
(let ((.def_50 (and .def_48 .def_49)))
(let ((.def_56 (and .def_50 .def_55)))
(let ((.def_69 (and .def_56 .def_68)))
(let ((.def_36 (and .def_33 .def_35)))
(let ((.def_39 (and .def_36 .def_38)))
(let ((.def_42 (and .def_39 .def_41)))
(let ((.def_30 (= b.speed_y__AT0 1.0 )))
(let ((.def_27 (= b.speed_x__AT0 1.0 )))
(let ((.def_23 (= b.y__AT0 10.0 )))
(let ((.def_19 (= b.x__AT0 0.0 )))
(let ((.def_15 (= b.time__AT0 0.0 )))
(let ((.def_17 (and .def_15 b.event_is_timed__AT0)))
(let ((.def_20 (and .def_17 .def_19)))
(let ((.def_24 (and .def_20 .def_23)))
(let ((.def_28 (and .def_24 .def_27)))
(let ((.def_31 (and .def_28 .def_30)))
(let ((.def_43 (and .def_31 .def_42)))
(let ((.def_70 (and .def_43 .def_69)))
(let ((.def_6 (or .def_4 b.counter.1__AT2)))
(let ((.def_9 (or .def_6 .def_8)))
(let ((.def_11 (or .def_9 b.counter.3__AT2)))
(let ((.def_12 (not .def_11)))
(let ((.def_71 (and .def_12 .def_70)))
(let ((.def_200 (and .def_71 .def_199)))
(let ((.def_402 (and .def_200 .def_401)))
(let ((.def_524 (and .def_402 .def_523)))
(let ((.def_710 (and .def_524 .def_709)))
(let ((.def_832 (and .def_710 .def_831)))
.def_832)))))))))))))))))))))))))))))))))))))))))))))))))))))))))))))))))))))))))))))))))))))))))))))))))))))))))))))))))))))))))))))))))))))))))))))))))))))))))))))))))))))))))))))))))))))))))))))))))))))))))))))))))))))))))))))))))))))))))))))))))))))))))))))))))))))))))))))))))))))))))))))))))))))))))))))))))))))))))))))))))))))))))))))))))))))))))))))))))))))))))))))))))))))))))))))))))))))))))))))))))))))))))))))))))))))))))))))))))))))))))))))))))))))))))))))))))))))))))))))))))))))))))))))))))))))))))))))))))))))))))))))))))))))))))))))))))))))))))))))))))))))))))))))))))))))))))))))))))))))))))))))))))))))))))))))))))))))))))))))))))))))))))))))))))))))))))))))))))))))))))))))))))))))))))))))))
(check-sat)
(exit)
